p cnf 108 507
1 2 0
-1 -2 0
19 20 0
-19 -20 0
37 38 0
-37 -38 0
55 56 0
-55 -56 0
73 74 0
-73 -74 0
91 92 0
-91 -92 0
3 4 0
-3 -4 0
21 22 0
-21 -22 0
39 40 0
-39 -40 0
57 58 0
-57 -58 0
75 76 0
-75 -76 0
93 94 0
-93 -94 0
5 6 0
-5 -6 0
23 24 0
-23 -24 0
41 42 0
-41 -42 0
59 60 0
-59 -60 0
77 78 0
-77 -78 0
95 96 0
-95 -96 0
7 8 0
-7 -8 0
25 26 0
-25 -26 0
43 44 0
-43 -44 0
61 62 0
-61 -62 0
79 80 0
-79 -80 0
97 98 0
-97 -98 0
9 10 0
-9 -10 0
27 28 0
-27 -28 0
45 46 0
-45 -46 0
63 64 0
-63 -64 0
81 82 0
-81 -82 0
99 100 0
-99 -100 0
11 12 0
-11 -12 0
29 30 0
-29 -30 0
47 48 0
-47 -48 0
65 66 0
-65 -66 0
83 84 0
-83 -84 0
101 102 0
-101 -102 0
13 14 0
-13 -14 0
31 32 0
-31 -32 0
49 50 0
-49 -50 0
67 68 0
-67 -68 0
85 86 0
-85 -86 0
103 104 0
-103 -104 0
15 16 0
-15 -16 0
33 34 0
-33 -34 0
51 52 0
-51 -52 0
69 70 0
-69 -70 0
87 88 0
-87 -88 0
105 106 0
-105 -106 0
17 18 0
-17 -18 0
35 36 0
-35 -36 0
53 54 0
-53 -54 0
71 72 0
-71 -72 0
89 90 0
-89 -90 0
107 108 0
-107 -108 0
-1 -19 -91 4 0
-1 -20 -91 4 0
-1 -19 -92 4 0
-1 -20 -92 4 0
-2 -19 -91 4 0
-2 -20 -91 4 0
-2 -19 -92 4 0
-2 -20 -92 3 0
-19 -1 -37 22 0
-19 -2 -37 22 0
-19 -1 -38 22 0
-19 -2 -38 22 0
-20 -1 -37 22 0
-20 -2 -37 22 0
-20 -1 -38 22 0
-20 -2 -38 21 0
-37 -19 -55 40 0
-37 -20 -55 40 0
-37 -19 -56 40 0
-37 -20 -56 40 0
-38 -19 -55 40 0
-38 -20 -55 40 0
-38 -19 -56 40 0
-38 -20 -56 39 0
-55 -37 -73 58 0
-55 -38 -73 58 0
-55 -37 -74 58 0
-55 -38 -74 58 0
-56 -37 -73 58 0
-56 -38 -73 58 0
-56 -37 -74 58 0
-56 -38 -74 57 0
-73 -55 -91 76 0
-73 -56 -91 76 0
-73 -55 -92 76 0
-73 -56 -92 76 0
-74 -55 -91 76 0
-74 -56 -91 76 0
-74 -55 -92 76 0
-74 -56 -92 75 0
-91 -1 -73 94 0
-91 -2 -73 94 0
-91 -1 -74 94 0
-91 -2 -74 94 0
-92 -1 -73 94 0
-92 -2 -73 94 0
-92 -1 -74 94 0
-92 -2 -74 93 0
-3 -21 -93 6 0
-3 -22 -93 6 0
-3 -21 -94 6 0
-3 -22 -94 6 0
-4 -21 -93 6 0
-4 -22 -93 6 0
-4 -21 -94 6 0
-4 -22 -94 5 0
-21 -3 -39 24 0
-21 -4 -39 24 0
-21 -3 -40 24 0
-21 -4 -40 24 0
-22 -3 -39 24 0
-22 -4 -39 24 0
-22 -3 -40 24 0
-22 -4 -40 23 0
-39 -21 -57 42 0
-39 -22 -57 42 0
-39 -21 -58 42 0
-39 -22 -58 42 0
-40 -21 -57 42 0
-40 -22 -57 42 0
-40 -21 -58 42 0
-40 -22 -58 41 0
-57 -39 -75 60 0
-57 -40 -75 60 0
-57 -39 -76 60 0
-57 -40 -76 60 0
-58 -39 -75 60 0
-58 -40 -75 60 0
-58 -39 -76 60 0
-58 -40 -76 59 0
-75 -57 -93 78 0
-75 -58 -93 78 0
-75 -57 -94 78 0
-75 -58 -94 78 0
-76 -57 -93 78 0
-76 -58 -93 78 0
-76 -57 -94 78 0
-76 -58 -94 77 0
-93 -3 -75 96 0
-93 -4 -75 96 0
-93 -3 -76 96 0
-93 -4 -76 96 0
-94 -3 -75 96 0
-94 -4 -75 96 0
-94 -3 -76 96 0
-94 -4 -76 95 0
-5 -23 -95 8 0
-5 -24 -95 8 0
-5 -23 -96 8 0
-5 -24 -96 8 0
-6 -23 -95 8 0
-6 -24 -95 8 0
-6 -23 -96 8 0
-6 -24 -96 7 0
-23 -5 -41 26 0
-23 -6 -41 26 0
-23 -5 -42 26 0
-23 -6 -42 26 0
-24 -5 -41 26 0
-24 -6 -41 26 0
-24 -5 -42 26 0
-24 -6 -42 25 0
-41 -23 -59 44 0
-41 -24 -59 44 0
-41 -23 -60 44 0
-41 -24 -60 44 0
-42 -23 -59 44 0
-42 -24 -59 44 0
-42 -23 -60 44 0
-42 -24 -60 43 0
-59 -41 -77 62 0
-59 -42 -77 62 0
-59 -41 -78 62 0
-59 -42 -78 62 0
-60 -41 -77 62 0
-60 -42 -77 62 0
-60 -41 -78 62 0
-60 -42 -78 61 0
-77 -59 -95 80 0
-77 -60 -95 80 0
-77 -59 -96 80 0
-77 -60 -96 80 0
-78 -59 -95 80 0
-78 -60 -95 80 0
-78 -59 -96 80 0
-78 -60 -96 79 0
-95 -5 -77 98 0
-95 -6 -77 98 0
-95 -5 -78 98 0
-95 -6 -78 98 0
-96 -5 -77 98 0
-96 -6 -77 98 0
-96 -5 -78 98 0
-96 -6 -78 97 0
-7 -25 -97 10 0
-7 -26 -97 10 0
-7 -25 -98 10 0
-7 -26 -98 10 0
-8 -25 -97 10 0
-8 -26 -97 10 0
-8 -25 -98 10 0
-8 -26 -98 9 0
-25 -7 -43 28 0
-25 -8 -43 28 0
-25 -7 -44 28 0
-25 -8 -44 28 0
-26 -7 -43 28 0
-26 -8 -43 28 0
-26 -7 -44 28 0
-26 -8 -44 27 0
-43 -25 -61 46 0
-43 -26 -61 46 0
-43 -25 -62 46 0
-43 -26 -62 46 0
-44 -25 -61 46 0
-44 -26 -61 46 0
-44 -25 -62 46 0
-44 -26 -62 45 0
-61 -43 -79 64 0
-61 -44 -79 64 0
-61 -43 -80 64 0
-61 -44 -80 64 0
-62 -43 -79 64 0
-62 -44 -79 64 0
-62 -43 -80 64 0
-62 -44 -80 63 0
-79 -61 -97 82 0
-79 -62 -97 82 0
-79 -61 -98 82 0
-79 -62 -98 82 0
-80 -61 -97 82 0
-80 -62 -97 82 0
-80 -61 -98 82 0
-80 -62 -98 81 0
-97 -7 -79 100 0
-97 -8 -79 100 0
-97 -7 -80 100 0
-97 -8 -80 100 0
-98 -7 -79 100 0
-98 -8 -79 100 0
-98 -7 -80 100 0
-98 -8 -80 99 0
-9 -27 -99 12 0
-9 -28 -99 12 0
-9 -27 -100 12 0
-9 -28 -100 12 0
-10 -27 -99 12 0
-10 -28 -99 12 0
-10 -27 -100 12 0
-10 -28 -100 11 0
-27 -9 -45 30 0
-27 -10 -45 30 0
-27 -9 -46 30 0
-27 -10 -46 30 0
-28 -9 -45 30 0
-28 -10 -45 30 0
-28 -9 -46 30 0
-28 -10 -46 29 0
-45 -27 -63 48 0
-45 -28 -63 48 0
-45 -27 -64 48 0
-45 -28 -64 48 0
-46 -27 -63 48 0
-46 -28 -63 48 0
-46 -27 -64 48 0
-46 -28 -64 47 0
-63 -45 -81 66 0
-63 -46 -81 66 0
-63 -45 -82 66 0
-63 -46 -82 66 0
-64 -45 -81 66 0
-64 -46 -81 66 0
-64 -45 -82 66 0
-64 -46 -82 65 0
-81 -63 -99 84 0
-81 -64 -99 84 0
-81 -63 -100 84 0
-81 -64 -100 84 0
-82 -63 -99 84 0
-82 -64 -99 84 0
-82 -63 -100 84 0
-82 -64 -100 83 0
-99 -9 -81 102 0
-99 -10 -81 102 0
-99 -9 -82 102 0
-99 -10 -82 102 0
-100 -9 -81 102 0
-100 -10 -81 102 0
-100 -9 -82 102 0
-100 -10 -82 101 0
-11 -29 -101 14 0
-11 -30 -101 14 0
-11 -29 -102 14 0
-11 -30 -102 14 0
-12 -29 -101 14 0
-12 -30 -101 14 0
-12 -29 -102 14 0
-12 -30 -102 13 0
-29 -11 -47 32 0
-29 -12 -47 32 0
-29 -11 -48 32 0
-29 -12 -48 32 0
-30 -11 -47 32 0
-30 -12 -47 32 0
-30 -11 -48 32 0
-30 -12 -48 31 0
-47 -29 -65 50 0
-47 -30 -65 50 0
-47 -29 -66 50 0
-47 -30 -66 50 0
-48 -29 -65 50 0
-48 -30 -65 50 0
-48 -29 -66 50 0
-48 -30 -66 49 0
-65 -47 -83 68 0
-65 -48 -83 68 0
-65 -47 -84 68 0
-65 -48 -84 68 0
-66 -47 -83 68 0
-66 -48 -83 68 0
-66 -47 -84 68 0
-66 -48 -84 67 0
-83 -65 -101 86 0
-83 -66 -101 86 0
-83 -65 -102 86 0
-83 -66 -102 86 0
-84 -65 -101 86 0
-84 -66 -101 86 0
-84 -65 -102 86 0
-84 -66 -102 85 0
-101 -11 -83 104 0
-101 -12 -83 104 0
-101 -11 -84 104 0
-101 -12 -84 104 0
-102 -11 -83 104 0
-102 -12 -83 104 0
-102 -11 -84 104 0
-102 -12 -84 103 0
-13 -31 -103 16 0
-13 -32 -103 16 0
-13 -31 -104 16 0
-13 -32 -104 16 0
-14 -31 -103 16 0
-14 -32 -103 16 0
-14 -31 -104 16 0
-14 -32 -104 15 0
-31 -13 -49 34 0
-31 -14 -49 34 0
-31 -13 -50 34 0
-31 -14 -50 34 0
-32 -13 -49 34 0
-32 -14 -49 34 0
-32 -13 -50 34 0
-32 -14 -50 33 0
-49 -31 -67 52 0
-49 -32 -67 52 0
-49 -31 -68 52 0
-49 -32 -68 52 0
-50 -31 -67 52 0
-50 -32 -67 52 0
-50 -31 -68 52 0
-50 -32 -68 51 0
-67 -49 -85 70 0
-67 -50 -85 70 0
-67 -49 -86 70 0
-67 -50 -86 70 0
-68 -49 -85 70 0
-68 -50 -85 70 0
-68 -49 -86 70 0
-68 -50 -86 69 0
-85 -67 -103 88 0
-85 -68 -103 88 0
-85 -67 -104 88 0
-85 -68 -104 88 0
-86 -67 -103 88 0
-86 -68 -103 88 0
-86 -67 -104 88 0
-86 -68 -104 87 0
-103 -13 -85 106 0
-103 -14 -85 106 0
-103 -13 -86 106 0
-103 -14 -86 106 0
-104 -13 -85 106 0
-104 -14 -85 106 0
-104 -13 -86 106 0
-104 -14 -86 105 0
-15 -33 -105 18 0
-15 -34 -105 18 0
-15 -33 -106 18 0
-15 -34 -106 18 0
-16 -33 -105 18 0
-16 -34 -105 18 0
-16 -33 -106 18 0
-16 -34 -106 17 0
-33 -15 -51 36 0
-33 -16 -51 36 0
-33 -15 -52 36 0
-33 -16 -52 36 0
-34 -15 -51 36 0
-34 -16 -51 36 0
-34 -15 -52 36 0
-34 -16 -52 35 0
-51 -33 -69 54 0
-51 -34 -69 54 0
-51 -33 -70 54 0
-51 -34 -70 54 0
-52 -33 -69 54 0
-52 -34 -69 54 0
-52 -33 -70 54 0
-52 -34 -70 53 0
-69 -51 -87 72 0
-69 -52 -87 72 0
-69 -51 -88 72 0
-69 -52 -88 72 0
-70 -51 -87 72 0
-70 -52 -87 72 0
-70 -51 -88 72 0
-70 -52 -88 71 0
-87 -69 -105 90 0
-87 -70 -105 90 0
-87 -69 -106 90 0
-87 -70 -106 90 0
-88 -69 -105 90 0
-88 -70 -105 90 0
-88 -69 -106 90 0
-88 -70 -106 89 0
-105 -15 -87 108 0
-105 -16 -87 108 0
-105 -15 -88 108 0
-105 -16 -88 108 0
-106 -15 -87 108 0
-106 -16 -87 108 0
-106 -15 -88 108 0
-106 -16 -88 107 0
-17 -35 -53 -71 -89 -107 0
-18 -36 -54 -72 -90 -108 0
-1 -19 -37 -55 -73 -91 0
-2 -20 -38 -56 -74 -92 0
-5 -23 -41 -59 -77 -95 0
-6 -24 -42 -60 -78 -96 0
-9 -27 -45 -63 -81 -99 0
-10 -28 -46 -64 -82 -100 0
-13 -31 -49 -67 -85 -103 0
-14 -32 -50 -68 -86 -104 0
-19 -2 0
-37 -2 0
-55 -2 0
-73 -2 0
-91 -2 0
